bench/smt/log/loop_zilu.benchmark18_conjunctive.smt.log
sat
(
  (define-fun inv ((x!0 Int) (x!1 Int) (x!2 Int)) Bool
    (let ((a!1 (not (<= (+ x!0 (* (- 1) x!1)) (- 1))))
          (a!2 (not (>= (+ x!1 (* (- 1) x!2)) 1)))
          (a!3 (not (>= (+ x!0 (* (- 1) x!1)) 1))))
      (and a!1 a!2 a!3)))
)
